problems/VanDerWaerdenNumbers/VanDerWaerden-models/noch/O2/lingeling/model_3-k3l4n31-solution000001.eprime-solution
language ESSENCE' 1.0

letting p_PartitionAsSet_ExplicitR5_ExplicitVarSizeWithMarker_Marker be [4, 13, 14; int(1..3)]
letting p_PartitionAsSet_ExplicitR5_ExplicitVarSizeWithMarker_Values be
        [[17, 19, 21, 28, 1, 1, 1, 1, 1, 1, 1, 1, 1, 1, 1, 1, 1, 1, 1, 1, 1, 1, 1, 1, 1, 1, 1, 1, 1, 1, 1; int(1..31)],
         [2, 3, 4, 6, 9, 11, 14, 15, 16, 18, 24, 29, 30, 1, 1, 1, 1, 1, 1, 1, 1, 1, 1, 1, 1, 1, 1, 1, 1, 1,
          1; int(1..31)],
         [1, 5, 7, 8, 10, 12, 13, 20, 22, 23, 25, 26, 27, 31, 1, 1, 1, 1, 1, 1, 1, 1, 1, 1, 1, 1, 1, 1, 1, 1,
          1; int(1..31)]; int(1..3)]
