problems/VanDerWaerdenNumbers/VanDerWaerden-models/noch/O2/lingeling/model_3-k3l4n31-solution000001.solution
language Essence 1.3

letting p be
        partition({1, 5, 7, 8, 10, 12, 13, 20, 22, 23, 25, 26, 27, 31}, {2, 3, 4, 6, 9, 11, 14, 15, 16, 18, 24, 29, 30},
                  {17, 19, 21, 28})
